54
120
96	1
95	2
94	1
93	1
92	4
90	2
89	2
88	4
87	1
85	1
83	1
82	3
81	1
79	1
78	3
76	3
72	2
71	3
68	2
67	2
66	4
64	3
63	2
62	2
61	2
60	1
59	1
58	4
57	1
56	1
54	2
53	2
51	2
49	1
48	2
47	2
45	2
44	1
43	1
42	1
41	2
40	4
36	1
34	1
33	3
32	1
31	1
30	2
29	1
28	1
27	1
26	1
25	3
24	1
